<instance format="XCSP3" type="CSP">
  <variables>
    <array id="x" size="[62]"> 0..4 </array>
  </variables>
  <constraints>
    <group>
      <extension>
        <list> %0 %1 </list>
        <conflicts> (1,1)(1,2) </conflicts>
      </extension>
      <args> x[11] x[20] </args>
      <args> x[46] x[48] </args>
      <args> x[6] x[10] </args>
    </group>
    <extension>
      <list> x[42] x[43] </list>
      <conflicts> (1,4)(3,0) </conflicts>
    </extension>
    <extension>
      <list> x[22] x[31] </list>
      <conflicts> (1,3)(1,4) </conflicts>
    </extension>
    <extension>
      <list> x[36] x[61] </list>
      <conflicts> (2,4)(3,3) </conflicts>
    </extension>
    <extension>
      <list> x[55] x[56] </list>
      <conflicts> (0,1)(2,4) </conflicts>
    </extension>
    <extension>
      <list> x[2] x[41] </list>
      <conflicts> (1,3)(2,4) </conflicts>
    </extension>
    <group>
      <extension>
        <list> %0 %1 </list>
        <conflicts> (1,2)(2,2) </conflicts>
      </extension>
      <args> x[8] x[23] </args>
      <args> x[13] x[17] </args>
    </group>
    <extension>
      <list> x[6] x[12] </list>
      <conflicts> (2,1)(3,0) </conflicts>
    </extension>
    <group>
      <extension>
        <list> %0 %1 </list>
        <conflicts> (4,3)(4,4) </conflicts>
      </extension>
      <args> x[24] x[25] </args>
      <args> x[5] x[14] </args>
    </group>
    <extension>
      <list> x[20] x[21] </list>
      <conflicts> (1,0)(2,2) </conflicts>
    </extension>
    <group>
      <extension>
        <list> %0 %1 </list>
        <conflicts> (0,3)(4,1) </conflicts>
      </extension>
      <args> x[50] x[52] </args>
      <args> x[2] x[45] </args>
    </group>
    <extension>
      <list> x[37] x[51] </list>
      <conflicts> (3,2)(4,2) </conflicts>
    </extension>
    <extension>
      <list> x[5] x[6] </list>
      <conflicts> (1,2)(2,3) </conflicts>
    </extension>
    <group>
      <extension>
        <list> %0 %1 </list>
        <conflicts> (0,2)(4,3) </conflicts>
      </extension>
      <args> x[34] x[35] </args>
      <args> x[10] x[13] </args>
    </group>
    <group>
      <extension>
        <list> %0 %1 </list>
        <conflicts> (1,2)(3,1) </conflicts>
      </extension>
      <args> x[37] x[52] </args>
      <args> x[23] x[24] </args>
    </group>
    <extension>
      <list> x[8] x[9] </list>
      <conflicts> (0,1)(4,3) </conflicts>
    </extension>
    <extension>
      <list> x[7] x[8] </list>
      <conflicts> (0,2)(2,1) </conflicts>
    </extension>
    <extension>
      <list> x[22] x[32] </list>
      <conflicts> (0,2)(1,2) </conflicts>
    </extension>
    <group>
      <extension>
        <list> %0 %1 </list>
        <conflicts> (1,0)(1,4) </conflicts>
      </extension>
      <args> x[50] x[51] </args>
      <args> x[5] x[12] </args>
    </group>
    <extension>
      <list> x[34] x[39] </list>
      <conflicts> (1,3)(4,0) </conflicts>
    </extension>
    <extension>
      <list> x[51] x[52] </list>
      <conflicts> (1,2)(4,1) </conflicts>
    </extension>
    <extension>
      <list> x[25] x[32] </list>
      <conflicts> (3,3)(4,4) </conflicts>
    </extension>
    <extension>
      <list> x[2] x[36] </list>
      <conflicts> (1,0)(4,3) </conflicts>
    </extension>
    <group>
      <extension>
        <list> %0 %1 </list>
        <conflicts> (1,1)(4,4) </conflicts>
      </extension>
      <args> x[35] x[37] </args>
      <args> x[5] x[8] </args>
      <args> x[38] x[40] </args>
    </group>
    <group>
      <extension>
        <list> %0 %1 </list>
        <conflicts> (1,0)(4,1) </conflicts>
      </extension>
      <args> x[5] x[9] </args>
      <args> x[2] x[38] </args>
    </group>
    <extension>
      <list> x[53] x[54] </list>
      <conflicts> (2,3)(4,0) </conflicts>
    </extension>
    <group>
      <extension>
        <list> %0 %1 </list>
        <conflicts> (0,4)(2,3) </conflicts>
      </extension>
      <args> x[10] x[12] </args>
      <args> x[0] x[3] </args>
    </group>
    <group>
      <extension>
        <list> %0 %1 </list>
        <conflicts> (1,1)(4,2) </conflicts>
      </extension>
      <args> x[5] x[7] </args>
      <args> x[39] x[46] </args>
    </group>
    <extension>
      <list> x[54] x[55] </list>
      <conflicts> (0,3)(2,2) </conflicts>
    </extension>
    <extension>
      <list> x[59] x[61] </list>
      <conflicts> (2,1)(4,4) </conflicts>
    </extension>
    <extension>
      <list> x[35] x[36] </list>
      <conflicts> (2,1)(2,3) </conflicts>
    </extension>
    <group>
      <extension>
        <list> %0 %1 </list>
        <conflicts> (1,4)(3,3) </conflicts>
      </extension>
      <args> x[27] x[29] </args>
      <args> x[36] x[51] </args>
    </group>
    <extension>
      <list> x[25] x[31] </list>
      <conflicts> (0,2)(4,4) </conflicts>
    </extension>
    <extension>
      <list> x[50] x[61] </list>
      <conflicts> (0,1)(1,0) </conflicts>
    </extension>
    <group>
      <extension>
        <list> %0 %1 </list>
        <conflicts> (0,3)(4,4) </conflicts>
      </extension>
      <args> x[40] x[43] </args>
      <args> x[30] x[32] </args>
    </group>
    <extension>
      <list> x[0] x[4] </list>
      <conflicts> (2,1)(3,1) </conflicts>
    </extension>
    <extension>
      <list> x[2] x[40] </list>
      <conflicts> (0,1)(3,4) </conflicts>
    </extension>
    <extension>
      <list> x[50] x[57] </list>
      <conflicts> (0,1)(4,0) </conflicts>
    </extension>
    <group>
      <extension>
        <list> %0 %1 </list>
        <conflicts> (2,0)(4,1) </conflicts>
      </extension>
      <args> x[11] x[19] </args>
      <args> x[36] x[60] </args>
    </group>
    <extension>
      <list> x[14] x[15] </list>
      <conflicts> (0,3)(2,4) </conflicts>
    </extension>
    <group>
      <extension>
        <list> %0 %1 </list>
        <conflicts> (4,0)(4,4) </conflicts>
      </extension>
      <args> x[15] x[16] </args>
      <args> x[59] x[60] </args>
    </group>
    <extension>
      <list> x[22] x[29] </list>
      <conflicts> (2,2)(4,4) </conflicts>
    </extension>
    <group>
      <extension>
        <list> %0 %1 </list>
        <conflicts> (3,0)(4,1) </conflicts>
      </extension>
      <args> x[5] x[15] </args>
      <args> x[2] x[37] </args>
    </group>
    <extension>
      <list> x[14] x[17] </list>
      <conflicts> (3,0)(4,2) </conflicts>
    </extension>
    <group>
      <extension>
        <list> %0 %1 </list>
        <conflicts> (2,0)(3,3) </conflicts>
      </extension>
      <args> x[2] x[44] </args>
      <args> x[1] x[4] </args>
    </group>
    <extension>
      <list> x[11] x[12] </list>
      <conflicts> (1,4)(4,0) </conflicts>
    </extension>
    <extension>
      <list> x[46] x[47] </list>
      <conflicts> (0,3)(3,3) </conflicts>
    </extension>
    <group>
      <extension>
        <list> %0 %1 </list>
        <conflicts> (3,3)(4,3) </conflicts>
      </extension>
      <args> x[11] x[21] </args>
      <args> x[3] x[5] </args>
    </group>
    <group>
      <extension>
        <list> %0 %1 </list>
        <conflicts> (4,2)(4,3) </conflicts>
      </extension>
      <args> x[2] x[35] </args>
      <args> x[42] x[44] </args>
    </group>
    <extension>
      <list> x[58] x[59] </list>
      <conflicts> (2,0)(2,3) </conflicts>
    </extension>
    <group>
      <extension>
        <list> %0 %1 </list>
        <conflicts> (1,2)(3,2) </conflicts>
      </extension>
      <args> x[18] x[21] </args>
      <args> x[1] x[5] </args>
    </group>
    <extension>
      <list> x[3] x[4] </list>
      <conflicts> (3,3)(4,2) </conflicts>
    </extension>
    <extension>
      <list> x[22] x[25] </list>
      <conflicts> (1,0)(1,1) </conflicts>
    </extension>
    <group>
      <extension>
        <list> %0 %1 </list>
        <conflicts> (0,3)(1,1) </conflicts>
      </extension>
      <args> x[23] x[29] </args>
      <args> x[0] x[6] </args>
    </group>
    <extension>
      <list> x[5] x[17] </list>
      <conflicts> (0,0)(3,0) </conflicts>
    </extension>
    <group>
      <extension>
        <list> %0 %1 </list>
        <conflicts> (0,4)(4,4) </conflicts>
      </extension>
      <args> x[39] x[49] </args>
      <args> x[19] x[20] </args>
      <args> x[22] x[30] </args>
      <args> x[6] x[13] </args>
    </group>
    <group>
      <extension>
        <list> %0 %1 </list>
        <conflicts> (1,4)(2,3) </conflicts>
      </extension>
      <args> x[46] x[49] </args>
      <args> x[50] x[58] </args>
    </group>
    <group>
      <extension>
        <list> %0 %1 </list>
        <conflicts> (0,0)(3,3) </conflicts>
      </extension>
      <args> x[5] x[11] </args>
      <args> x[0] x[7] </args>
    </group>
    <extension>
      <list> x[44] x[45] </list>
      <conflicts> (0,1)(3,0) </conflicts>
    </extension>
    <extension>
      <list> x[22] x[24] </list>
      <conflicts> (1,0)(2,4) </conflicts>
    </extension>
    <group>
      <extension>
        <list> %0 %1 </list>
        <conflicts> (1,0)(2,1) </conflicts>
      </extension>
      <args> x[26] x[29] </args>
      <args> x[4] x[37] </args>
    </group>
    <extension>
      <list> x[6] x[22] </list>
      <conflicts> (0,3)(4,3) </conflicts>
    </extension>
    <group>
      <extension>
        <list> %0 %1 </list>
        <conflicts> (2,1)(4,1) </conflicts>
      </extension>
      <args> x[0] x[9] </args>
      <args> x[58] x[61] </args>
    </group>
    <extension>
      <list> x[4] x[35] </list>
      <conflicts> (0,4)(2,1) </conflicts>
    </extension>
    <extension>
      <list> x[0] x[5] </list>
      <conflicts> (0,0)(4,4) </conflicts>
    </extension>
    <group>
      <extension>
        <list> %0 %1 </list>
        <conflicts> (0,1)(4,4) </conflicts>
      </extension>
      <args> x[11] x[13] </args>
      <args> x[40] x[44] </args>
    </group>
    <extension>
      <list> x[55] x[57] </list>
      <conflicts> (0,1)(3,1) </conflicts>
    </extension>
    <group>
      <extension>
        <list> %0 %1 </list>
        <conflicts> (2,2)(4,1) </conflicts>
      </extension>
      <args> x[0] x[1] </args>
      <args> x[36] x[53] </args>
      <args> x[56] x[57] </args>
    </group>
    <extension>
      <list> x[8] x[22] </list>
      <conflicts> (1,3)(2,1) </conflicts>
    </extension>
    <group>
      <extension>
        <list> %0 %1 </list>
        <conflicts> (1,2)(1,4) </conflicts>
      </extension>
      <args> x[22] x[26] </args>
      <args> x[36] x[52] </args>
      <args> x[37] x[50] </args>
    </group>
    <extension>
      <list> x[25] x[33] </list>
      <conflicts> (1,4)(2,4) </conflicts>
    </extension>
    <group>
      <extension>
        <list> %0 %1 </list>
        <conflicts> (1,0)(4,0) </conflicts>
      </extension>
      <args> x[30] x[31] </args>
      <args> x[28] x[29] </args>
    </group>
    <extension>
      <list> x[13] x[16] </list>
      <conflicts> (1,0)(2,3) </conflicts>
    </extension>
    <extension>
      <list> x[36] x[37] </list>
      <conflicts> (0,3)(4,2) </conflicts>
    </extension>
    <extension>
      <list> x[23] x[28] </list>
      <conflicts> (1,4)(2,0) </conflicts>
    </extension>
    <extension>
      <list> x[2] x[5] </list>
      <conflicts> (0,4)(3,2) </conflicts>
    </extension>
    <group>
      <extension>
        <list> %0 %1 </list>
        <conflicts> (2,1)(4,2) </conflicts>
      </extension>
      <args> x[32] x[33] </args>
      <args> x[22] x[28] </args>
    </group>
    <group>
      <extension>
        <list> %0 %1 </list>
        <conflicts> (1,3)(4,1) </conflicts>
      </extension>
      <args> x[37] x[53] </args>
      <args> x[39] x[40] </args>
    </group>
    <extension>
      <list> x[36] x[58] </list>
      <conflicts> (0,3)(2,0) </conflicts>
    </extension>
    <extension>
      <list> x[1] x[3] </list>
      <conflicts> (0,2)(1,4) </conflicts>
    </extension>
    <extension>
      <list> x[39] x[48] </list>
      <conflicts> (1,1)(3,2) </conflicts>
    </extension>
    <group>
      <extension>
        <list> %0 %1 </list>
        <conflicts> (0,4)(4,2) </conflicts>
      </extension>
      <args> x[7] x[9] </args>
      <args> x[8] x[24] </args>
    </group>
    <extension>
      <list> x[6] x[11] </list>
      <conflicts> (2,0)(4,3) </conflicts>
    </extension>
    <extension>
      <list> x[23] x[25] </list>
      <conflicts> (2,4)(3,2) </conflicts>
    </extension>
    <extension>
      <list> x[0] x[8] </list>
      <conflicts> (2,4)(4,2) </conflicts>
    </extension>
    <group>
      <extension>
        <list> %0 %1 </list>
        <conflicts> (2,3)(4,1) </conflicts>
      </extension>
      <args> x[19] x[21] </args>
      <args> x[50] x[53] </args>
    </group>
    <group>
      <extension>
        <list> %0 %1 </list>
        <conflicts> (0,2)(2,3) </conflicts>
      </extension>
      <args> x[14] x[16] </args>
      <args> x[6] x[25] </args>
    </group>
    <extension>
      <list> x[43] x[44] </list>
      <conflicts> (2,1)(4,3) </conflicts>
    </extension>
    <extension>
      <list> x[6] x[23] </list>
      <conflicts> (2,2)(2,3) </conflicts>
    </extension>
    <extension>
      <list> x[11] x[18] </list>
      <conflicts> (0,2)(0,3) </conflicts>
    </extension>
    <extension>
      <list> x[4] x[34] </list>
      <conflicts> (0,2)(1,1) </conflicts>
    </extension>
    <extension>
      <list> x[53] x[55] </list>
      <conflicts> (1,3)(4,4) </conflicts>
    </extension>
    <extension>
      <list> x[34] x[49] </list>
      <conflicts> (2,4)(4,3) </conflicts>
    </extension>
    <group>
      <extension>
        <list> %0 %1 </list>
        <conflicts> (3,1)(4,3) </conflicts>
      </extension>
      <args> x[34] x[47] </args>
      <args> x[2] x[43] </args>
      <args> x[26] x[28] </args>
    </group>
    <extension>
      <list> x[2] x[3] </list>
      <conflicts> (0,0)(1,4) </conflicts>
    </extension>
    <extension>
      <list> x[13] x[15] </list>
      <conflicts> (1,3)(3,3) </conflicts>
    </extension>
    <extension>
      <list> x[50] x[55] </list>
      <conflicts> (3,0)(3,4) </conflicts>
    </extension>
    <group>
      <extension>
        <list> %0 %1 </list>
        <conflicts> (0,4)(4,1) </conflicts>
      </extension>
      <args> x[5] x[16] </args>
      <args> x[53] x[57] </args>
    </group>
    <extension>
      <list> x[12] x[18] </list>
      <conflicts> (1,4)(4,1) </conflicts>
    </extension>
    <group>
      <extension>
        <list> %0 %1 </list>
        <conflicts> (0,3)(4,0) </conflicts>
      </extension>
      <args> x[8] x[25] </args>
      <args> x[6] x[24] </args>
    </group>
    <extension>
      <list> x[60] x[61] </list>
      <conflicts> (1,0)(3,2) </conflicts>
    </extension>
    <extension>
      <list> x[39] x[41] </list>
      <conflicts> (0,3)(1,0) </conflicts>
    </extension>
    <extension>
      <list> x[31] x[33] </list>
      <conflicts> (2,3)(3,4) </conflicts>
    </extension>
    <extension>
      <list> x[2] x[39] </list>
      <conflicts> (0,0)(1,2) </conflicts>
    </extension>
    <group>
      <extension>
        <list> %0 %1 </list>
        <conflicts> (2,3)(2,4) </conflicts>
      </extension>
      <args> x[34] x[46] </args>
      <args> x[16] x[17] </args>
    </group>
    <group>
      <extension>
        <list> %0 %1 </list>
        <conflicts> (0,1)(2,2) </conflicts>
      </extension>
      <args> x[40] x[42] </args>
      <args> x[34] x[38] </args>
    </group>
    <group>
      <extension>
        <list> %0 %1 </list>
        <conflicts> (3,2)(4,4) </conflicts>
      </extension>
      <args> x[4] x[36] </args>
      <args> x[18] x[20] </args>
      <args> x[34] x[40] </args>
    </group>
    <extension>
      <list> x[48] x[49] </list>
      <conflicts> (1,1)(2,3) </conflicts>
    </extension>
    <extension>
      <list> x[38] x[39] </list>
      <conflicts> (0,1)(1,4) </conflicts>
    </extension>
    <group>
      <extension>
        <list> %0 %1 </list>
        <conflicts> (0,2)(3,0) </conflicts>
      </extension>
      <args> x[22] x[33] </args>
      <args> x[2] x[34] </args>
    </group>
    <group>
      <extension>
        <list> %0 %1 </list>
        <conflicts> (3,3)(4,0) </conflicts>
      </extension>
      <args> x[39] x[47] </args>
      <args> x[2] x[4] </args>
      <args> x[18] x[19] </args>
    </group>
    <extension>
      <list> x[34] x[37] </list>
      <conflicts> (0,0)(0,3) </conflicts>
    </extension>
    <group>
      <extension>
        <list> %0 %1 </list>
        <conflicts> (4,0)(4,3) </conflicts>
      </extension>
      <args> x[27] x[28] </args>
      <args> x[6] x[7] </args>
      <args> x[22] x[23] </args>
    </group>
    <extension>
      <list> x[12] x[21] </list>
      <conflicts> (0,4)(4,3) </conflicts>
    </extension>
    <extension>
      <list> x[42] x[45] </list>
      <conflicts> (1,2)(3,0) </conflicts>
    </extension>
    <extension>
      <list> x[36] x[59] </list>
      <conflicts> (2,3)(4,2) </conflicts>
    </extension>
    <extension>
      <list> x[50] x[56] </list>
      <conflicts> (3,0)(4,0) </conflicts>
    </extension>
    <group>
      <extension>
        <list> %0 %1 </list>
        <conflicts> (1,2)(2,4) </conflicts>
      </extension>
      <args> x[23] x[27] </args>
      <args> x[12] x[20] </args>
    </group>
    <extension>
      <list> x[34] x[41] </list>
      <conflicts> (3,4)(4,1) </conflicts>
    </extension>
    <extension>
      <list> x[53] x[56] </list>
      <conflicts> (3,2)(3,3) </conflicts>
    </extension>
    <group>
      <extension>
        <list> %0 %1 </list>
        <conflicts> (2,0)(2,2) </conflicts>
      </extension>
      <args> x[26] x[27] </args>
      <args> x[47] x[48] </args>
    </group>
    <extension>
      <list> x[25] x[30] </list>
      <conflicts> (0,4)(1,3) </conflicts>
    </extension>
    <extension>
      <list> x[50] x[54] </list>
      <conflicts> (1,4)(4,2) </conflicts>
    </extension>
    <extension>
      <list> x[40] x[45] </list>
      <conflicts> (2,3)(3,1) </conflicts>
    </extension>
    <extension>
      <list> x[5] x[10] </list>
      <conflicts> (0,0)(2,3) </conflicts>
    </extension>
    <extension>
      <list> x[38] x[41] </list>
      <conflicts> (1,4)(3,1) </conflicts>
    </extension>
    <extension>
      <list> x[2] x[42] </list>
      <conflicts> (0,3)(0,4) </conflicts>
    </extension>
    <extension>
      <list> x[5] x[13] </list>
      <conflicts> (3,1)(4,0) </conflicts>
    </extension>
    <extension>
      <list> x[47] x[49] </list>
      <conflicts> (1,2)(3,4) </conflicts>
    </extension>
    <extension>
      <list> x[4] x[5] </list>
      <conflicts> (0,4)(1,0) </conflicts>
    </extension>
    <group>
      <extension>
        <list> %0 %1 </list>
        <conflicts> (2,0)(3,1) </conflicts>
      </extension>
      <args> x[23] x[26] </args>
      <args> x[54] x[56] </args>
    </group>
    <extension>
      <list> x[58] x[60] </list>
      <conflicts> (1,3)(3,4) </conflicts>
    </extension>
    <extension>
      <list> x[54] x[57] </list>
      <conflicts> (3,1)(4,4) </conflicts>
    </extension>
    <extension>
      <list> x[1] x[2] </list>
      <conflicts> (0,1)(0,2) </conflicts>
    </extension>
    <extension>
      <list> x[15] x[17] </list>
      <conflicts> (0,0)(3,4) </conflicts>
    </extension>
    <group>
      <extension>
        <list> %0 %1 </list>
        <conflicts> (1,0)(1,2) </conflicts>
      </extension>
      <args> x[43] x[45] </args>
      <args> x[13] x[14] </args>
      <args> x[12] x[19] </args>
    </group>
    <group>
      <extension>
        <list> %0 %1 </list>
        <conflicts> (1,2)(2,1) </conflicts>
      </extension>
      <args> x[10] x[11] </args>
      <args> x[0] x[2] </args>
    </group>
    <group>
      <extension>
        <list> %0 %1 </list>
        <conflicts> (0,2)(4,2) </conflicts>
      </extension>
      <args> x[40] x[41] </args>
      <args> x[34] x[48] </args>
    </group>
    <extension>
      <list> x[6] x[9] </list>
      <conflicts> (1,1)(4,1) </conflicts>
    </extension>
    <group>
      <extension>
        <list> %0 %1 </list>
        <conflicts> (0,3)(1,4) </conflicts>
      </extension>
      <args> x[34] x[36] </args>
      <args> x[30] x[33] </args>
    </group>
    <extension>
      <list> x[36] x[50] </list>
      <conflicts> (0,3)(1,3) </conflicts>
    </extension>
    <extension>
      <list> x[6] x[8] </list>
      <conflicts> (1,1)(2,2) </conflicts>
    </extension>
    <extension>
      <list> x[12] x[13] </list>
      <conflicts> (0,3)(2,3) </conflicts>
    </extension>
    <extension>
      <list> x[52] x[53] </list>
      <conflicts> (2,3)(4,3) </conflicts>
    </extension>
    <group>
      <extension>
        <list> %0 %1 </list>
        <conflicts> (2,4)(3,0) </conflicts>
      </extension>
      <args> x[22] x[27] </args>
      <args> x[50] x[60] </args>
    </group>
    <extension>
      <list> x[50] x[59] </list>
      <conflicts> (0,0)(3,2) </conflicts>
    </extension>
    <extension>
      <list> x[31] x[32] </list>
      <conflicts> (1,3)(2,3) </conflicts>
    </extension>
    <extension>
      <list> x[51] x[53] </list>
      <conflicts> (3,4)(4,2) </conflicts>
    </extension>
  </constraints>
</instance>
